Copyright (C) 2013-2015, Filipe Brandao
Build (method = -2)
  #dp: 2660
  Step-3' Graph: 71 vertices and 1060 arcs (0.00s)
  Step-4' Graph: 71 vertices and 1060 arcs (0.00s)
  #V4/#V3 = 1.00
  #A4/#A3 = 1.00
Ready! (0.00s)
Optimize a model with 132 rows, 1061 columns and 3049 nonzeros
Found heuristic solution: objective 374
Presolve removed 27 rows and 34 columns
Presolve time: 0.01s
Presolved: 105 rows, 1027 columns, 2957 nonzeros
Variable types: 0 continuous, 1027 integer (0 binary)
Optimize a model with 105 rows, 1027 columns and 2957 nonzeros
Presolved: 105 rows, 1027 columns, 2957 nonzeros

Root barrier log...

Ordering time: 0.00s

Barrier statistics:
 AA' NZ     : 1.576e+03
 Factor NZ  : 2.970e+03
 Factor Ops : 1.132e+05 (less than 1 second per iteration)
 Threads    : 1

                  Objective                Residual
Iter       Primal          Dual         Primal    Dual     Compl     Time
   0   5.47733634e+03 -1.76523728e+04  5.67e+04 2.22e-16  7.36e+01     0s
   1   1.75463646e+03 -5.94767885e+03  1.02e+04 1.11e-15  1.42e+01     0s
   2   5.25999638e+02 -2.25181116e+03  4.87e+02 2.00e-15  1.73e+00     0s
   3   4.08234075e+02 -7.24850698e+02  1.90e+01 6.66e-16  5.52e-01     0s
   4   3.16464458e+02 -3.83115921e+01  3.54e+00 7.77e-16  1.71e-01     0s
   5   2.89482386e+02  2.94100335e+01  1.88e+00 7.77e-16  1.25e-01     0s
   6   2.63911988e+02  1.41100707e+02  9.92e-01 6.30e-16  5.90e-02     0s
   7   2.47551958e+02  2.08843585e+02  4.61e-01 7.08e-16  1.86e-02     0s
   8   2.39124788e+02  2.26320581e+02  9.45e-02 6.60e-16  6.14e-03     0s
   9   2.36761115e+02  2.31782397e+02  3.52e-02 7.77e-16  2.38e-03     0s
  10   2.35730011e+02  2.33250069e+02  3.31e-03 6.45e-16  1.19e-03     0s
  11   2.35297581e+02  2.34790931e+02  6.36e-04 5.48e-16  2.42e-04     0s
  12   2.35195557e+02  2.35124922e+02  4.61e-05 5.62e-16  3.38e-05     0s
  13   2.35175335e+02  2.35174441e+02  5.03e-07 6.72e-16  4.28e-07     0s
  14   2.35175000e+02  2.35175000e+02  2.02e-12 7.44e-16  1.07e-12     0s

Barrier solved model in 14 iterations and 0.01 seconds
Optimal objective 2.35175000e+02


Root relaxation: objective 2.351750e+02, 245 iterations, 0.01 seconds

    Nodes    |    Current Node    |     Objective Bounds      |     Work
 Expl Unexpl |  Obj  Depth IntInf | Incumbent    BestBd   Gap | It/Node Time

     0     0  235.17500    0   22  374.00000  235.17500  37.1%     -    0s
H    0     0                     239.0000000  235.17500  1.60%     -    0s
H    0     0                     238.0000000  235.17500  1.19%     -    0s
H    0     0                     236.0000000  235.17500  0.35%     -    0s

Explored 0 nodes (334 simplex iterations) in 0.02 seconds
Thread count was 1 (of 4 available processors)

Optimal solution found (tolerance 0.00e+00)
Best objective 2.360000000000e+02, best bound 2.360000000000e+02, gap 0.0%
Preprocessing time: 0.00 seconds
Gurobi run time: 0.02 seconds
Total run time: 0.02 seconds
Objective: 236
Solution:
9 x [i=1, i=49]
3 x [i=1, i=53]
6 x [i=2, i=48]
3 x [i=2, i=53]
8 x [i=3, i=51]
2 x [i=3, i=54]
7 x [i=4, i=46]
1 x [i=5, i=47]
8 x [i=5, i=52]
1 x [i=5, i=54]
7 x [i=6, i=44]
3 x [i=6, i=45]
7 x [i=7, i=43]
3 x [i=7, i=47]
3 x [i=8, i=47]
10 x [i=8, i=50]
9 x [i=9, i=41]
4 x [i=9, i=42]
7 x [i=10, i=40]
4 x [i=10, i=45]
7 x [i=11, i=39]
10 x [i=12, i=38]
3 x [i=13, i=37]
2 x [i=13, i=61, i=61]
7 x [i=14, i=36]
7 x [i=15, i=35]
3 x [i=15, i=59, i=61]
6 x [i=16, i=34]
1 x [i=16, i=59, i=60]
1 x [i=16, i=59, i=61]
8 x [i=17, i=33]
3 x [i=18, i=32]
10 x [i=19, i=31]
2 x [i=19, i=32]
7 x [i=20, i=30]
4 x [i=20, i=57, i=58]
7 x [i=21, i=29]
1 x [i=21, i=57, i=58]
1 x [i=22]
4 x [i=22, i=28]
6 x [i=23, i=28]
1 x [i=23, i=54, i=58]
1 x [i=23, i=56, i=56]
1 x [i=23, i=57, i=58]
5 x [i=24, i=26]
10 x [i=24, i=27]
2 x [i=24, i=54, i=57]
6 x [i=25, i=55, i=56]
1 x [i=33, i=49, i=59]
1 x [i=36, i=39, i=60]
1 x [i=37, i=37, i=61]
1 x [i=53, i=54, i=54, i=59]
1 x [i=54, i=60, i=60]
